\ LP format - for model browsing. Use MPS format to capture full model detail.
Minimize
  400 B0(5) + 400 B1(5) + 400 B2(5) + 400 B3(5) + 410 B4(5) + 410 B5(5)
   + 410 B6(5) + 410 B7(5) + 420 B8(5) + 420 B9(5) + 420 B10(5)
   + 420 B11(5) + 480 B12(5) + 480 B13(5) + 480 B14(5) + 480 B15(5)
   + 500 B16(5) + 500 B17(5) + 500 B18(5) + 500 B19(5) + 390 B20(5)
   + 390 B21(5) + 390 B22(5) + 390 B23(5) + 13 C26(3) + 9.625 C29(3)
   + 8.928571428571429 C32(3) + 15.66666666666667 C35(3) + 12.2 C36(3)
   + 107.2 C38(3) + 9.5 C39(3) + 304.5 C41(3) + 8.267857142857142 C42(3)
   + 105.1428571428571 C44(3) + 15.53333333333333 C45(3) + 307.2 C47(3)
   + 154.8 C49(3) + 8.4 C50(3) + 103 C52(3) + 6.6 C53(3)
   + 153.4285714285714 C55(3) + 5.678571428571429 C56(3) + 104.8 C58(3)
   + 10.8 C59(3) + 14 C60(3) + 12.4 C61(3) + 12.4 C62(3) + 10.25 C63(3)
   + 8.65 C64(3) + 8.65 C65(3) + 9.642857142857142 C66(3)
   + 8.642857142857142 C67(3) + 8.642857142857142 C68(3)
   + 16.66666666666667 C69(3) + 14 C70(3) + 14 C71(3) + 10 C73(3)
   + 10 C74(3) + 8.125 C76(3) + 8.125 C77(3) + 6.696428571428571 C79(3)
   + 6.696428571428571 C80(3) + 13.33333333333333 C82(3)
   + 13.33333333333333 C83(3) + 308 C84(3) + 10.4 C86(3) + 155 C87(3)
   + 7.4 C89(3) + 105.7142857142857 C90(3) + 7.214285714285714 C92(3)
   + 83 C93(3) + 12 C95(3)
Subject To
 c0: C84(3) + C87(3) + C90(3) + C93(3) = 1
 c1: C60(3) + C63(3) + C66(3) + C69(3) = 1
 c2: C36(3) + C39(3) + C42(3) + C45(3) = 1
 c3: C49(3) + C52(3) + C55(3) + C58(3) = 1
 c4: C61(3) + C64(3) + C67(3) + C70(3) = 1
 c5: C73(3) + C76(3) + C79(3) + C82(3) = 1
 c6: C38(3) + C41(3) + C44(3) + C47(3) = 1
 c7: C50(3) + C53(3) + C56(3) + C59(3) = 1
 c8: C62(3) + C65(3) + C68(3) + C71(3) = 1
 c9: C74(3) + C77(3) + C80(3) + C83(3) = 1
 c10: C86(3) + C89(3) + C92(3) + C95(3) = 1
 c11: C26(3) + C29(3) + C32(3) + C35(3) = 1
 c12: 12.2 C36(3) + 9.5 C39(3) + 8.267857142857142 C42(3)
   + 15.53333333333333 C45(3) + 14 C60(3) + 10.25 C63(3)
   + 9.642857142857142 C66(3) + 16.66666666666667 C69(3) + 308 C84(3)
   + 155 C87(3) + 105.7142857142857 C90(3) + 83 C93(3) <= 200000
 c13: 154.8 C49(3) + 103 C52(3) + 153.4285714285714 C55(3) + 104.8 C58(3)
   + 12.4 C61(3) + 8.65 C64(3) + 8.642857142857142 C67(3) + 14 C70(3)
   + 10 C73(3) + 8.125 C76(3) + 6.696428571428571 C79(3)
   + 13.33333333333333 C82(3) <= 200000
 c14: 13 C26(3) + 9.625 C29(3) + 8.928571428571429 C32(3)
   + 15.66666666666667 C35(3) + 107.2 C38(3) + 304.5 C41(3)
   + 105.1428571428571 C44(3) + 307.2 C47(3) + 8.4 C50(3) + 6.6 C53(3)
   + 5.678571428571429 C56(3) + 10.8 C59(3) + 12.4 C62(3) + 8.65 C65(3)
   + 8.642857142857142 C68(3) + 14 C71(3) + 10 C74(3) + 8.125 C77(3)
   + 6.696428571428571 C80(3) + 13.33333333333333 C83(3) + 10.4 C86(3)
   + 7.4 C89(3) + 7.214285714285714 C92(3) + 12 C95(3) <= 200000
 c15: 400 B0(5) + 400 B1(5) + 400 B2(5) + 400 B3(5) + 410 B4(5) + 410 B5(5)
   + 410 B6(5) + 410 B7(5) + 420 B8(5) + 420 B9(5) + 420 B10(5)
   + 420 B11(5) + 480 B12(5) + 480 B13(5) + 480 B14(5) + 480 B15(5)
   + 500 B16(5) + 500 B17(5) + 500 B18(5) + 500 B19(5) + 390 B20(5)
   + 390 B21(5) + 390 B22(5) + 390 B23(5) <= 2000
 c16: B0(5) + B4(5) + B8(5) + B12(5) + B16(5) + B20(5) <= 1
 c17: B1(5) + B5(5) + B9(5) + B13(5) + B17(5) + B21(5) <= 2
 c18: B2(5) + B6(5) + B10(5) + B14(5) + B18(5) + B22(5) <= 1
 c19: B3(5) + B7(5) + B11(5) + B15(5) + B19(5) + B23(5) <= 2
 c20: - B0(5) + C24(1) <= 0
 c21: - B0(5) + C25(1) <= 0
 c22: - B0(5) + C26(3) <= 0
 c23: - B1(5) + C27(1) <= 0
 c24: - B1(5) + C28(1) <= 0
 c25: - B1(5) + C29(3) <= 0
 c26: - B2(5) + C30(1) <= 0
 c27: - B2(5) + C31(1) <= 0
 c28: - B2(5) + C32(3) <= 0
 c29: - B3(5) + C33(1) <= 0
 c30: - B3(5) + C34(1) <= 0
 c31: - B3(5) + C35(3) <= 0
 c32: - B4(5) + C36(3) <= 0
 c33: - B4(5) + C37(1) <= 0
 c34: - B4(5) + C38(3) <= 0
 c35: - B5(5) + C39(3) <= 0
 c36: - B5(5) + C40(1) <= 0
 c37: - B5(5) + C41(3) <= 0
 c38: - B6(5) + C42(3) <= 0
 c39: - B6(5) + C43(1) <= 0
 c40: - B6(5) + C44(3) <= 0
 c41: - B7(5) + C45(3) <= 0
 c42: - B7(5) + C46(1) <= 0
 c43: - B7(5) + C47(3) <= 0
 c44: - B8(5) + C48(1) <= 0
 c45: - B8(5) + C49(3) <= 0
 c46: - B8(5) + C50(3) <= 0
 c47: - B9(5) + C51(1) <= 0
 c48: - B9(5) + C52(3) <= 0
 c49: - B9(5) + C53(3) <= 0
 c50: - B10(5) + C54(1) <= 0
 c51: - B10(5) + C55(3) <= 0
 c52: - B10(5) + C56(3) <= 0
 c53: - B11(5) + C57(1) <= 0
 c54: - B11(5) + C58(3) <= 0
 c55: - B11(5) + C59(3) <= 0
 c56: - B12(5) + C60(3) <= 0
 c57: - B12(5) + C61(3) <= 0
 c58: - B12(5) + C62(3) <= 0
 c59: - B13(5) + C63(3) <= 0
 c60: - B13(5) + C64(3) <= 0
 c61: - B13(5) + C65(3) <= 0
 c62: - B14(5) + C66(3) <= 0
 c63: - B14(5) + C67(3) <= 0
 c64: - B14(5) + C68(3) <= 0
 c65: - B15(5) + C69(3) <= 0
 c66: - B15(5) + C70(3) <= 0
 c67: - B15(5) + C71(3) <= 0
 c68: - B16(5) + C72(1) <= 0
 c69: - B16(5) + C73(3) <= 0
 c70: - B16(5) + C74(3) <= 0
 c71: - B17(5) + C75(1) <= 0
 c72: - B17(5) + C76(3) <= 0
 c73: - B17(5) + C77(3) <= 0
 c74: - B18(5) + C78(1) <= 0
 c75: - B18(5) + C79(3) <= 0
 c76: - B18(5) + C80(3) <= 0
 c77: - B19(5) + C81(1) <= 0
 c78: - B19(5) + C82(3) <= 0
 c79: - B19(5) + C83(3) <= 0
 c80: - B20(5) + C84(3) <= 0
 c81: - B20(5) + C85(1) <= 0
 c82: - B20(5) + C86(3) <= 0
 c83: - B21(5) + C87(3) <= 0
 c84: - B21(5) + C88(1) <= 0
 c85: - B21(5) + C89(3) <= 0
 c86: - B22(5) + C90(3) <= 0
 c87: - B22(5) + C91(1) <= 0
 c88: - B22(5) + C92(3) <= 0
 c89: - B23(5) + C93(3) <= 0
 c90: - B23(5) + C94(1) <= 0
 c91: - B23(5) + C95(3) <= 0
Bounds
Binaries
 B0(5) B1(5) B2(5) B3(5) B4(5) B5(5) B6(5) B7(5) B8(5) B9(5) B10(5) B11(5)
 B12(5) B13(5) B14(5) B15(5) B16(5) B17(5) B18(5) B19(5) B20(5) B21(5)
 B22(5) B23(5)
End
